verifications/stream/logs/fix_mod8.opb
min: -727 x13 -118 x14 +19 x15 +255 x16 -684 x17 +80 x18 +450 x19 -687 x20 -5 x21 +339 x22 -11 x23 +8 x24 +10 x25 -1 x26 -74 x27 +220 x28 -201 x29 -75 x30 +28 x31 +55 x32 +2 x33 -89 x34 +28 x35 +86 x36 +244 x37 -164 x38 -80 x39 +237 x40 +72 x41 +163 x42 -1013 x43 +1778 x44 +5 x45 -843 x46 -1022 x47 +1 x48 +288 x49 +22 x50 -429 x51 +78 x52 +54 x53 -134 x54 -19 x55 +48 x56 -21 x57 -3 x58 -7 x59 -10 x60 +4 x61 -57 x62 +49 x63 +126 x64 +116 x65 +54 x66 +19 x67 -1 x68 -1 x69 +3 x70 -12 x71 -42 x72 ;
+1 x3 >= 1;
+1 x4 >= 1;
-1 x5 >= 0;
+1 x6 >= 1;
+1 x7 >= 1;
+1 x8 >= 1;
+1 x1 >= 1;
-1 x2 +1 x1 -1 x13 >= -1;
+1 x2 -1 x1 -1 x13 >= -1;
-1 x3 +1 x1 -1 x14 >= -1;
+1 x3 -1 x1 -1 x14 >= -1;
-1 x3 -1 x2 +1 x15 >= -1;
+1 x3 +1 x2 +1 x15 >= 1;
-1 x4 -1 x1 +1 x16 >= -1;
+1 x4 +1 x1 +1 x16 >= 1;
-1 x4 +1 x2 -1 x17 >= -1;
+1 x4 -1 x2 -1 x17 >= -1;
-1 x4 -1 x3 +1 x18 >= -1;
+1 x4 +1 x3 +1 x18 >= 1;
-1 x5 -1 x1 +1 x19 >= -1;
+1 x5 +1 x1 +1 x19 >= 1;
-1 x5 +1 x2 -1 x20 >= -1;
+1 x5 -1 x2 -1 x20 >= -1;
-1 x5 +1 x3 -1 x21 >= -1;
+1 x5 -1 x3 -1 x21 >= -1;
-1 x5 -1 x4 +1 x22 >= -1;
+1 x5 +1 x4 +1 x22 >= 1;
-1 x6 +1 x1 -1 x23 >= -1;
+1 x6 -1 x1 -1 x23 >= -1;
-1 x6 -1 x3 +1 x24 >= -1;
+1 x6 +1 x3 +1 x24 >= 1;
-1 x6 -1 x4 +1 x25 >= -1;
+1 x6 +1 x4 +1 x25 >= 1;
-1 x6 +1 x5 -1 x26 >= -1;
+1 x6 -1 x5 -1 x26 >= -1;
-1 x7 +1 x1 -1 x27 >= -1;
+1 x7 -1 x1 -1 x27 >= -1;
-1 x7 -1 x2 +1 x28 >= -1;
+1 x7 +1 x2 +1 x28 >= 1;
-1 x7 +1 x4 -1 x29 >= -1;
+1 x7 -1 x4 -1 x29 >= -1;
-1 x7 +1 x5 -1 x30 >= -1;
+1 x7 -1 x5 -1 x30 >= -1;
-1 x8 -1 x1 +1 x31 >= -1;
+1 x8 +1 x1 +1 x31 >= 1;
-1 x8 -1 x2 +1 x32 >= -1;
+1 x8 +1 x2 +1 x32 >= 1;
-1 x8 -1 x3 +1 x33 >= -1;
+1 x8 +1 x3 +1 x33 >= 1;
-1 x8 +1 x4 -1 x34 >= -1;
+1 x8 -1 x4 -1 x34 >= -1;
-1 x8 -1 x5 +1 x35 >= -1;
+1 x8 +1 x5 +1 x35 >= 1;
-1 x8 -1 x7 +1 x36 >= -1;
+1 x8 +1 x7 +1 x36 >= 1;
-1 x9 -1 x1 +1 x37 >= -1;
+1 x9 +1 x1 +1 x37 >= 1;
-1 x9 +1 x2 -1 x38 >= -1;
+1 x9 -1 x2 -1 x38 >= -1;
-1 x9 +1 x4 -1 x39 >= -1;
+1 x9 -1 x4 -1 x39 >= -1;
-1 x9 -1 x5 +1 x40 >= -1;
+1 x9 +1 x5 +1 x40 >= 1;
-1 x9 -1 x7 +1 x41 >= -1;
+1 x9 +1 x7 +1 x41 >= 1;
-1 x9 -1 x8 +1 x42 >= -1;
+1 x9 +1 x8 +1 x42 >= 1;
-1 x10 +1 x1 -1 x43 >= -1;
+1 x10 -1 x1 -1 x43 >= -1;
-1 x10 -1 x2 +1 x44 >= -1;
+1 x10 +1 x2 +1 x44 >= 1;
-1 x10 -1 x3 +1 x45 >= -1;
+1 x10 +1 x3 +1 x45 >= 1;
-1 x10 +1 x4 -1 x46 >= -1;
+1 x10 -1 x4 -1 x46 >= -1;
-1 x10 +1 x5 -1 x47 >= -1;
+1 x10 -1 x5 -1 x47 >= -1;
-1 x10 -1 x6 +1 x48 >= -1;
+1 x10 +1 x6 +1 x48 >= 1;
-1 x10 -1 x7 +1 x49 >= -1;
+1 x10 +1 x7 +1 x49 >= 1;
-1 x10 -1 x8 +1 x50 >= -1;
+1 x10 +1 x8 +1 x50 >= 1;
-1 x10 +1 x9 -1 x51 >= -1;
+1 x10 -1 x9 -1 x51 >= -1;
-1 x11 -1 x1 +1 x52 >= -1;
+1 x11 +1 x1 +1 x52 >= 1;
-1 x11 -1 x2 +1 x53 >= -1;
+1 x11 +1 x2 +1 x53 >= 1;
-1 x11 +1 x3 -1 x54 >= -1;
+1 x11 -1 x3 -1 x54 >= -1;
-1 x11 +1 x4 -1 x55 >= -1;
+1 x11 -1 x4 -1 x55 >= -1;
-1 x11 -1 x5 +1 x56 >= -1;
+1 x11 +1 x5 +1 x56 >= 1;
-1 x11 +1 x6 -1 x57 >= -1;
+1 x11 -1 x6 -1 x57 >= -1;
-1 x11 +1 x7 -1 x58 >= -1;
+1 x11 -1 x7 -1 x58 >= -1;
-1 x11 +1 x8 -1 x59 >= -1;
+1 x11 -1 x8 -1 x59 >= -1;
-1 x11 +1 x9 -1 x60 >= -1;
+1 x11 -1 x9 -1 x60 >= -1;
-1 x11 -1 x10 +1 x61 >= -1;
+1 x11 +1 x10 +1 x61 >= 1;
-1 x12 +1 x1 -1 x62 >= -1;
+1 x12 -1 x1 -1 x62 >= -1;
-1 x12 -1 x2 +1 x63 >= -1;
+1 x12 +1 x2 +1 x63 >= 1;
-1 x12 -1 x3 +1 x64 >= -1;
+1 x12 +1 x3 +1 x64 >= 1;
-1 x12 -1 x4 +1 x65 >= -1;
+1 x12 +1 x4 +1 x65 >= 1;
-1 x12 -1 x5 +1 x66 >= -1;
+1 x12 +1 x5 +1 x66 >= 1;
-1 x12 -1 x6 +1 x67 >= -1;
+1 x12 +1 x6 +1 x67 >= 1;
-1 x12 +1 x7 -1 x68 >= -1;
+1 x12 -1 x7 -1 x68 >= -1;
-1 x12 +1 x8 -1 x69 >= -1;
+1 x12 -1 x8 -1 x69 >= -1;
-1 x12 -1 x9 +1 x70 >= -1;
+1 x12 +1 x9 +1 x70 >= 1;
-1 x12 +1 x10 -1 x71 >= -1;
+1 x12 -1 x10 -1 x71 >= -1;
-1 x12 +1 x11 -1 x72 >= -1;
+1 x12 -1 x11 -1 x72 >= -1;
