verifications/stream/logs/fix_mod8.sol
# Objective value = -2362
x13 1
x14 1
x15 1
x16 1
x17 1
x18 1
x19 0
x20 0
x21 0
x22 0
x23 1
x24 1
x25 1
x26 0
x27 1
x28 1
x29 1
x30 0
x31 1
x32 1
x33 1
x34 1
x35 0
x36 1
x37 0
x38 0
x39 0
x40 1
x41 0
x42 0
x43 0
x44 0
x45 0
x46 0
x47 1
x48 0
x49 0
x50 0
x51 1
x52 1
x53 1
x54 1
x55 1
x56 0
x57 1
x58 1
x59 1
x60 0
x61 0
x62 0
x63 0
x64 0
x65 0
x66 1
x67 0
x68 0
x69 0
x70 1
x71 1
x72 0
x3 1
x4 1
x5 0
x6 1
x7 1
x8 1
x1 1
x2 1
x9 0
x10 0
x11 1
x12 0
